
Gurobi 11.0.0 (linux64) logging started Thu Sep 19 17:57:41 2024

Set parameter LogFile to value "/lustre1/scratch/348/vsc34888/JointResearch/05.Models/06.Benchmarking/E.Representative_days_based_on_Line_Benefits_OptModel/IEEE118_mod1_ByStages_nc80/openStarNet_IEEE118_mod1_ByStages_nc80.log"
Set parameter Method to value 2
Set parameter MIPFocus to value 1
Set parameter Presolve to value 2
Set parameter RINS to value 100
Set parameter MIPGap to value 0.01
Set parameter Threads to value 36
Set parameter TimeLimit to value 259200
Set parameter IterationLimit to value 760000000
Gurobi Optimizer version 11.0.0 build v11.0.0rc2 (linux64 - "Rocky Linux 8.9 (Green Obsidian)")

CPU model: Intel(R) Xeon(R) Gold 6240 CPU @ 2.60GHz, instruction set [SSE2|AVX|AVX2|AVX512]
Thread count: 36 physical cores, 36 logical processors, using up to 36 threads

Optimize a model with 113683 rows, 84041 columns and 292818 nonzeros
Model fingerprint: 0x165c3a21
Variable types: 84007 continuous, 34 integer (34 binary)
Coefficient statistics:
  Matrix range     [3e-04, 9e+03]
  Objective range  [1e+00, 1e+00]
  Bounds range     [1e-04, 3e+00]
  RHS range        [2e-04, 3e+00]
Presolve removed 76848 rows and 38638 columns
Presolve time: 0.42s
Presolved: 36835 rows, 45403 columns, 134733 nonzeros
Variable types: 45369 continuous, 34 integer (34 binary)
Root relaxation presolved: 36835 rows, 45403 columns, 134733 nonzeros

Root barrier log...

Ordering time: 0.02s

Barrier statistics:
 Dense cols : 34
 AA' NZ     : 1.665e+05
 Factor NZ  : 6.466e+05 (roughly 40 MB of memory)
 Factor Ops : 1.355e+07 (less than 1 second per iteration)
 Threads    : 35

                  Objective                Residual
Iter       Primal          Dual         Primal    Dual     Compl     Time
   0   8.89539404e+06 -2.85222717e+09  1.55e+01 5.81e+03  1.15e+05     1s
   1   2.10120275e+06 -1.09775517e+09  3.39e+00 6.07e-08  2.37e+04     1s
   2   5.04241522e+05 -5.62173150e+08  5.75e-01 5.41e-08  6.95e+03     1s
   3   2.99356789e+05 -1.17203280e+08  1.54e-01 1.04e-08  1.29e+03     1s
   4   2.01454486e+05 -1.22470616e+07  1.20e-02 1.49e-09  1.18e+02     1s
   5   1.07247837e+05 -5.08719782e+06  9.03e-04 5.96e-10  4.78e+01     1s
   6   6.92741605e+04 -3.65025819e+06  3.45e-04 4.21e-10  3.42e+01     1s
   7   4.24398940e+04 -6.39740351e+05  4.63e-05 5.23e-11  6.27e+00     1s
   8   2.33221691e+04 -1.74690022e+05  1.48e-05 2.91e-11  1.82e+00     1s
   9   1.08830820e+04 -6.07775272e+04  5.43e-06 7.28e-12  6.58e-01     1s
  10   5.57651074e+03 -1.71866201e+04  2.04e-06 1.46e-11  2.09e-01     1s
  11   2.79873594e+03 -7.41513188e+03  6.56e-07 1.46e-11  9.38e-02     1s
  12   2.11485734e+03 -3.37835438e+03  3.86e-07 7.28e-12  5.04e-02     1s
  13   1.57877032e+03 -1.27149727e+03  1.94e-07 7.28e-12  2.62e-02     1s
  14   1.41102073e+03 -5.48765793e+02  1.41e-07 1.46e-11  1.80e-02     1s
  15   1.20671831e+03 -1.60496298e+01  8.26e-08 1.46e-11  1.12e-02     1s
  16   1.08222033e+03  4.11888059e+02  4.92e-08 1.46e-11  6.16e-03     1s
  17   1.02310751e+03  6.59442294e+02  3.43e-08 1.46e-11  3.34e-03     1s
  18   9.71309660e+02  7.34194068e+02  2.20e-08 1.46e-11  2.18e-03     1s
  19   9.40611656e+02  7.71363363e+02  1.50e-08 1.46e-11  1.55e-03     1s
  20   9.22496469e+02  8.01201870e+02  1.09e-08 3.64e-12  1.11e-03     1s
  21   9.07189648e+02  8.20322788e+02  7.59e-09 7.28e-12  7.98e-04     1s
  22   8.98083083e+02  8.35509235e+02  5.60e-09 1.46e-11  5.75e-04     1s
  23   8.88958725e+02  8.54058068e+02  3.73e-09 7.28e-12  3.21e-04     1s
  24   8.81604598e+02  8.62373382e+02  2.23e-09 3.64e-12  1.77e-04     1s
  25   8.76778281e+02  8.65719717e+02  1.26e-09 7.28e-12  1.02e-04     1s
  26   8.72916828e+02  8.67967469e+02  5.05e-10 7.28e-12  4.55e-05     1s
  27   8.71887292e+02  8.68785754e+02  3.08e-10 1.46e-11  2.85e-05     1s
  28   8.70843730e+02  8.69667716e+02  1.09e-10 1.46e-11  1.08e-05     1s
  29   8.70462861e+02  8.69990735e+02  4.07e-11 1.46e-11  4.34e-06     1s
  30   8.70275381e+02  8.70121725e+02  1.39e-09 7.28e-12  1.41e-06     1s
  31   8.70231150e+02  8.70211378e+02  1.71e-09 7.28e-12  1.82e-07     1s
  32   8.70222986e+02  8.70218760e+02  4.51e-09 1.46e-11  3.88e-08     1s
  33   8.70221482e+02  8.70220291e+02  1.70e-09 1.46e-11  1.09e-08     1s
  34   8.70220661e+02  8.70220529e+02  6.34e-09 1.46e-11  1.22e-09     1s
  35   8.70220601e+02  8.70220600e+02  1.17e-09 1.46e-11  1.02e-11     1s

Barrier solved model in 35 iterations and 1.44 seconds (1.37 work units)
Optimal objective 8.70220601e+02


Root relaxation: objective 8.702206e+02, 3271 iterations, 1.35 seconds (1.04 work units)

    Nodes    |    Current Node    |     Objective Bounds      |     Work
 Expl Unexpl |  Obj  Depth IntInf | Incumbent    BestBd   Gap | It/Node Time

     0     0  870.22060    0   20          -  870.22060      -     -    2s
H    0     0                    6859.5782400  870.22060  87.3%     -    4s
H    0     0                    2418.1079326  870.22060  64.0%     -    7s
     0     0  884.39983    0   22 2418.10793  884.39983  63.4%     -   11s
H    0     0                    1943.0520192  884.39983  54.5%     -   12s
     0     0  885.77753    0   22 1943.05202  885.77753  54.4%     -   14s
     0     0  885.77753    0   21 1943.05202  885.77753  54.4%     -   14s
     0     0  885.77753    0   21 1943.05202  885.77753  54.4%     -   14s
     0     0  886.25456    0   20 1943.05202  886.25456  54.4%     -   15s
     0     0  886.25456    0   20 1943.05202  886.25456  54.4%     -   16s
     0     0  886.25456    0   20 1943.05202  886.25456  54.4%     -   16s
     0     0  896.97558    0   20 1943.05202  896.97558  53.8%     -   16s
     0     0  896.97558    0   20 1943.05202  896.97558  53.8%     -   17s
     0     0  896.97558    0   20 1943.05202  896.97558  53.8%     -   17s
     0     0  896.97558    0   20 1943.05202  896.97558  53.8%     -   19s
H    0     0                     964.5498688  896.97558  7.01%     -  194s
     0     2  896.97558    0   20  964.54987  896.97558  7.01%     -  195s
     3     6     cutoff    2       964.54987  902.34439  6.45%  4753  205s
     7    10  933.62867    3   18  964.54987  913.25743  5.32%  3238  214s
    13    16  960.20881    4   19  964.54987  917.95681  4.83%  3291  220s
    23    12     cutoff    5       964.54987  924.62503  4.14%  2751  229s
    39    14  932.11264    6   11  964.54987  926.22081  3.97%  2285  236s
    51    22  940.49809    7   11  964.54987  932.26466  3.35%  2341  242s
    65    24     cutoff    8       964.54987  940.50726  2.49%  2446  248s
    87    22  947.71413    9    9  964.54987  943.14683  2.22%  2441  254s
   111    20  950.45397   10   11  964.54987  945.61455  1.96%  2142  258s
   133    21     cutoff   11       964.54987  950.48292  1.46%  2021  262s

Cutting planes:
  Implied bound: 130
  MIR: 415

Explored 190 nodes (301965 simplex iterations) in 263.89 seconds (320.02 work units)
Thread count was 36 (of 36 available processors)

Solution count 4: 964.55 1943.05 2418.11 6859.58 

Optimal solution found (tolerance 1.00e-02)
Best objective 9.645498688448e+02, best bound 9.562687722643e+02, gap 0.8585%

Gurobi 11.0.0 (linux64) logging started Thu Sep 19 18:02:18 2024

Set parameter LogFile to value "/lustre1/scratch/348/vsc34888/JointResearch/05.Models/06.Benchmarking/E.Representative_days_based_on_Line_Benefits_OptModel/IEEE118_mod1_ByStages_nc80/openStarNet_IEEE118_mod1_ByStages_nc80.log"
Set parameter Method to value 2
Set parameter MIPFocus to value 1
Set parameter Presolve to value 2
Set parameter RINS to value 100
Set parameter MIPGap to value 0.01
Set parameter Threads to value 36
Set parameter TimeLimit to value 259200
Set parameter IterationLimit to value 760000000
Gurobi Optimizer version 11.0.0 build v11.0.0rc2 (linux64 - "Rocky Linux 8.9 (Green Obsidian)")

CPU model: Intel(R) Xeon(R) Gold 6240 CPU @ 2.60GHz, instruction set [SSE2|AVX|AVX2|AVX512]
Thread count: 36 physical cores, 36 logical processors, using up to 36 threads

Optimize a model with 113683 rows, 84007 columns and 281904 nonzeros
Model fingerprint: 0x954a2e9b
Coefficient statistics:
  Matrix range     [3e-04, 9e+03]
  Objective range  [1e+00, 1e+00]
  Bounds range     [1e-04, 3e+00]
  RHS range        [2e-04, 2e+02]
Presolve removed 84900 rows and 37073 columns
Presolve time: 0.15s
Presolved: 28783 rows, 47262 columns, 113785 nonzeros

Ordering time: 0.01s

Barrier statistics:
 AA' NZ     : 9.672e+04
 Factor NZ  : 3.840e+05 (roughly 34 MB of memory)
 Factor Ops : 5.637e+06 (less than 1 second per iteration)
 Threads    : 36

                  Objective                Residual
Iter       Primal          Dual         Primal    Dual     Compl     Time
   0   1.41172158e+07 -1.48449056e+09  9.17e+01 1.60e+02  5.67e+04     0s
   1   2.03861074e+06 -4.50289576e+08  1.21e+01 5.88e-12  8.60e+03     0s
   2   4.36949641e+05 -8.18364634e+07  1.77e+00 6.82e-12  1.19e+03     0s
   3   1.74598299e+05 -1.11821315e+07  3.10e-02 4.92e-12  1.13e+02     0s
   4   9.34249058e+04 -1.38199171e+06  1.88e-07 4.55e-12  1.43e+01     0s
   5   4.95684242e+04 -3.64647949e+05  6.28e-08 2.05e-12  4.01e+00     0s
   6   2.84485230e+04 -1.15324976e+05  2.54e-08 9.09e-13  1.39e+00     0s
   7   1.34320203e+04 -4.79662541e+04  9.38e-09 9.09e-13  5.94e-01     0s
   8   8.41684231e+03 -1.98176709e+04  5.14e-09 9.09e-13  2.73e-01     0s
   9   4.63936201e+03 -9.14019584e+03  2.35e-09 9.09e-13  1.33e-01     0s
  10   3.22730188e+03 -4.60543742e+03  1.38e-09 9.09e-13  7.58e-02     0s
  11   2.38770635e+03 -1.71670150e+03  8.28e-10 9.09e-13  3.97e-02     0s
  12   1.70849424e+03 -1.09993074e+02  4.04e-10 9.09e-13  1.76e-02     0s
  13   1.42510653e+03  4.24679639e+02  2.41e-10 9.09e-13  9.68e-03     0s
  14   1.25975164e+03  6.64734139e+02  1.49e-10 9.09e-13  5.76e-03     0s
  15   1.15706361e+03  7.08407100e+02  9.42e-11 9.09e-13  4.34e-03     0s
  16   1.09247858e+03  7.95390556e+02  1.55e-10 9.09e-13  2.88e-03     0s
  17   1.05216439e+03  8.66889448e+02  1.01e-10 9.09e-13  1.79e-03     0s
  18   1.01826590e+03  9.13152599e+02  8.07e-11 9.09e-13  1.02e-03     0s
  19   1.00445161e+03  9.30851423e+02  1.91e-10 9.09e-13  7.12e-04     0s
  20   9.87695011e+02  9.45889197e+02  3.15e-10 9.09e-13  4.05e-04     0s
  21   9.77196614e+02  9.56605034e+02  9.48e-11 9.09e-13  1.99e-04     0s
  22   9.68300763e+02  9.60098041e+02  4.15e-10 9.09e-13  7.94e-05     0s
  23   9.67160399e+02  9.61448433e+02  3.42e-10 4.55e-13  5.53e-05     0s
  24   9.65957281e+02  9.63248649e+02  1.92e-10 9.09e-13  2.62e-05     0s
  25   9.65349657e+02  9.64065514e+02  1.18e-09 9.09e-13  1.24e-05     1s
  26   9.64963568e+02  9.64276812e+02  5.28e-10 2.73e-12  6.65e-06     1s
  27   9.64590003e+02  9.64469233e+02  4.91e-09 9.09e-13  1.17e-06     1s
  28   9.64559369e+02  9.64535998e+02  1.34e-09 9.09e-13  2.26e-07     1s
  29   9.64550628e+02  9.64548718e+02  2.31e-09 9.09e-13  1.85e-08     1s
  30   9.64549905e+02  9.64549566e+02  1.65e-09 9.09e-13  3.28e-09     1s
  31   9.64549870e+02  9.64549865e+02  9.66e-10 1.82e-12  5.28e-11     1s

Barrier solved model in 31 iterations and 0.59 seconds (0.58 work units)
Optimal objective 9.64549870e+02

Crossover log...

    8205 DPushes remaining with DInf 0.0000000e+00                 1s
       0 DPushes remaining with DInf 0.0000000e+00                 1s

     322 PPushes remaining with PInf 0.0000000e+00                 1s
       0 PPushes remaining with PInf 0.0000000e+00                 1s

  Push phase complete: Pinf 0.0000000e+00, Dinf 2.6955383e-12      1s

Extra simplex iterations after uncrush: 2
Iteration    Objective       Primal Inf.    Dual Inf.      Time
    3318    9.6454987e+02   0.000000e+00   0.000000e+00      1s

Solved in 3318 iterations and 0.86 seconds (0.72 work units)
Optimal objective  9.645498688e+02

Gurobi 11.0.0 (linux64) logging started Sat Sep 21 21:21:42 2024

Set parameter LogFile to value "/lustre1/scratch/348/vsc34888/JointResearch/05.Models/06.Benchmarking/E.Representative_days_based_on_Line_Benefits_OptModel/IEEE118_mod1_ByStages_nc80/openStarNet_IEEE118_mod1_ByStages_nc80.log"
Set parameter Method to value 2
Set parameter MIPFocus to value 1
Set parameter Presolve to value 2
Set parameter RINS to value 100
Set parameter MIPGap to value 0.01
Set parameter Threads to value 36
Set parameter TimeLimit to value 259200
Set parameter IterationLimit to value 760000000
Gurobi Optimizer version 11.0.0 build v11.0.0rc2 (linux64 - "Rocky Linux 8.9 (Green Obsidian)")

CPU model: Intel(R) Xeon(R) Gold 6240 CPU @ 2.60GHz, instruction set [SSE2|AVX|AVX2|AVX512]
Thread count: 36 physical cores, 36 logical processors, using up to 36 threads

Optimize a model with 113683 rows, 84007 columns and 281904 nonzeros
Model fingerprint: 0x0efb75a7
Coefficient statistics:
  Matrix range     [3e-04, 9e+03]
  Objective range  [1e+00, 1e+00]
  Bounds range     [1e-04, 3e+00]
  RHS range        [2e-04, 3e+00]
Presolve removed 85891 rows and 39209 columns
Presolve time: 0.16s
Presolved: 27792 rows, 46150 columns, 110163 nonzeros

Ordering time: 0.01s

Barrier statistics:
 AA' NZ     : 9.681e+04
 Factor NZ  : 3.677e+05 (roughly 30 MB of memory)
 Factor Ops : 5.379e+06 (less than 1 second per iteration)
 Threads    : 36

                  Objective                Residual
Iter       Primal          Dual         Primal    Dual     Compl     Time
   0   1.42437197e+07 -1.21128968e+09  8.38e+01 1.42e+02  5.86e+04     0s
   1   1.62050057e+06 -4.19761747e+08  8.39e+00 5.91e-12  7.80e+03     0s
   2   3.67394450e+05 -8.44109195e+07  9.87e-01 6.37e-12  1.12e+03     0s
   3   1.84373596e+05 -1.12889008e+07  2.09e-02 6.12e-12  1.16e+02     0s
   4   1.07347157e+05 -1.53023840e+06  1.22e-03 1.68e-11  1.62e+01     0s
   5   6.13850783e+04 -4.61294450e+05  3.92e-04 4.21e-12  5.17e+00     0s
   6   3.90223840e+04 -1.74031977e+05  1.58e-04 1.65e-12  2.11e+00     0s
   7   2.90039676e+04 -1.03785438e+05  8.33e-05 1.05e-12  1.31e+00     0s
   8   2.51788382e+04 -3.88254496e+04  5.79e-05 9.09e-13  6.33e-01     0s
   9   2.03719963e+04 -1.59446003e+04  3.33e-05 9.09e-13  3.59e-01     0s
  10   1.77418330e+04 -2.50463410e+03  2.13e-05 9.09e-13  2.00e-01     0s
  11   1.45008042e+04  3.75831310e+03  7.65e-06 9.09e-13  1.06e-01     0s
  12   1.33741133e+04  8.62880197e+03  3.76e-06 9.09e-13  4.70e-02     0s
  13   1.27440180e+04  1.06276681e+04  1.82e-06 9.09e-13  2.09e-02     0s
  14   1.24168576e+04  1.13990356e+04  9.39e-07 9.09e-13  1.01e-02     0s
  15   1.22575704e+04  1.16686765e+04  5.41e-07 9.09e-13  5.83e-03     0s
  16   1.21545287e+04  1.18457296e+04  2.97e-07 1.82e-12  3.06e-03     0s
  17   1.20862392e+04  1.19266822e+04  1.44e-07 9.09e-13  1.58e-03     0s
  18   1.20436289e+04  1.19809930e+04  5.31e-08 9.09e-13  6.20e-04     0s
  19   1.20319079e+04  1.19972409e+04  2.98e-08 9.09e-13  3.43e-04     0s
  20   1.20217304e+04  1.20109783e+04  1.00e-08 1.82e-12  1.06e-04     0s
  21   1.20186372e+04  1.20130057e+04  4.51e-09 9.09e-13  5.57e-05     0s
  22   1.20165063e+04  1.20149284e+04  8.76e-10 2.73e-12  1.56e-05     0s
  23   1.20159099e+04  1.20157374e+04  1.04e-10 9.09e-13  1.71e-06     0s
  24   1.20158965e+04  1.20158636e+04  6.23e-11 4.55e-13  3.26e-07     1s
  25   1.20158932e+04  1.20158876e+04  2.63e-11 9.09e-13  5.61e-08     1s
  26   1.20158929e+04  1.20158920e+04  2.18e-11 9.09e-13  8.71e-09     1s
  27   1.20158928e+04  1.20158927e+04  8.44e-11 9.09e-13  1.18e-09     1s
  28   1.20158928e+04  1.20158928e+04  3.59e-10 9.09e-13  6.22e-11     1s

Barrier solved model in 28 iterations and 0.55 seconds (0.52 work units)
Optimal objective 1.20158928e+04

Crossover log...

    8113 DPushes remaining with DInf 0.0000000e+00                 1s
       0 DPushes remaining with DInf 0.0000000e+00                 1s

     650 PPushes remaining with PInf 0.0000000e+00                 1s
       0 PPushes remaining with PInf 0.0000000e+00                 1s

  Push phase complete: Pinf 0.0000000e+00, Dinf 2.6957213e-11      1s

Extra simplex iterations after uncrush: 9
Iteration    Objective       Primal Inf.    Dual Inf.      Time
    3076    1.2015893e+04   0.000000e+00   0.000000e+00      1s

Solved in 3076 iterations and 0.81 seconds (0.66 work units)
Optimal objective  1.201589282e+04

Gurobi 11.0.0 (linux64) logging started Sat Sep 21 21:21:57 2024

Set parameter LogFile to value "/lustre1/scratch/348/vsc34888/JointResearch/05.Models/06.Benchmarking/E.Representative_days_based_on_Line_Benefits_OptModel/IEEE118_mod1_ByStages_nc80/openStarNet_IEEE118_mod1_ByStages_nc80.log"
Set parameter Method to value 2
Set parameter MIPFocus to value 1
Set parameter Presolve to value 2
Set parameter RINS to value 100
Set parameter MIPGap to value 0.01
Set parameter Threads to value 36
Set parameter TimeLimit to value 259200
Set parameter IterationLimit to value 760000000
Gurobi Optimizer version 11.0.0 build v11.0.0rc2 (linux64 - "Rocky Linux 8.9 (Green Obsidian)")

CPU model: Intel(R) Xeon(R) Gold 6240 CPU @ 2.60GHz, instruction set [SSE2|AVX|AVX2|AVX512]
Thread count: 36 physical cores, 36 logical processors, using up to 36 threads

Optimize a model with 113683 rows, 84007 columns and 281904 nonzeros
Model fingerprint: 0x0efb75a7
Coefficient statistics:
  Matrix range     [3e-04, 9e+03]
  Objective range  [1e+00, 1e+00]
  Bounds range     [1e-04, 3e+00]
  RHS range        [2e-04, 3e+00]
Presolve removed 85891 rows and 39209 columns
Presolve time: 0.16s
Presolved: 27792 rows, 46150 columns, 110163 nonzeros

Ordering time: 0.01s

Barrier statistics:
 AA' NZ     : 9.681e+04
 Factor NZ  : 3.677e+05 (roughly 30 MB of memory)
 Factor Ops : 5.379e+06 (less than 1 second per iteration)
 Threads    : 36

                  Objective                Residual
Iter       Primal          Dual         Primal    Dual     Compl     Time
   0   1.42437197e+07 -1.21128968e+09  8.38e+01 1.42e+02  5.86e+04     0s
   1   1.62050057e+06 -4.19761747e+08  8.39e+00 5.91e-12  7.80e+03     0s
   2   3.67394450e+05 -8.44109195e+07  9.87e-01 6.37e-12  1.12e+03     0s
   3   1.84373596e+05 -1.12889008e+07  2.09e-02 6.12e-12  1.16e+02     0s
   4   1.07347157e+05 -1.53023840e+06  1.22e-03 1.68e-11  1.62e+01     0s
   5   6.13850783e+04 -4.61294450e+05  3.92e-04 4.21e-12  5.17e+00     0s
   6   3.90223840e+04 -1.74031977e+05  1.58e-04 1.65e-12  2.11e+00     0s
   7   2.90039676e+04 -1.03785438e+05  8.33e-05 1.05e-12  1.31e+00     0s
   8   2.51788382e+04 -3.88254496e+04  5.79e-05 9.09e-13  6.33e-01     0s
   9   2.03719963e+04 -1.59446003e+04  3.33e-05 9.09e-13  3.59e-01     0s
  10   1.77418330e+04 -2.50463410e+03  2.13e-05 9.09e-13  2.00e-01     0s
  11   1.45008042e+04  3.75831310e+03  7.65e-06 9.09e-13  1.06e-01     0s
  12   1.33741133e+04  8.62880197e+03  3.76e-06 9.09e-13  4.70e-02     0s
  13   1.27440180e+04  1.06276681e+04  1.82e-06 9.09e-13  2.09e-02     0s
  14   1.24168576e+04  1.13990356e+04  9.39e-07 9.09e-13  1.01e-02     0s
  15   1.22575704e+04  1.16686765e+04  5.41e-07 9.09e-13  5.83e-03     0s
  16   1.21545287e+04  1.18457296e+04  2.97e-07 1.82e-12  3.06e-03     0s
  17   1.20862392e+04  1.19266822e+04  1.44e-07 9.09e-13  1.58e-03     0s
  18   1.20436289e+04  1.19809930e+04  5.31e-08 9.09e-13  6.20e-04     0s
  19   1.20319079e+04  1.19972409e+04  2.98e-08 9.09e-13  3.43e-04     0s
  20   1.20217304e+04  1.20109783e+04  1.00e-08 1.82e-12  1.06e-04     0s
  21   1.20186372e+04  1.20130057e+04  4.51e-09 9.09e-13  5.57e-05     0s
  22   1.20165063e+04  1.20149284e+04  8.76e-10 2.73e-12  1.56e-05     0s
  23   1.20159099e+04  1.20157374e+04  1.04e-10 9.09e-13  1.71e-06     0s
  24   1.20158965e+04  1.20158636e+04  6.23e-11 4.55e-13  3.26e-07     1s
  25   1.20158932e+04  1.20158876e+04  2.63e-11 9.09e-13  5.61e-08     1s
  26   1.20158929e+04  1.20158920e+04  2.18e-11 9.09e-13  8.71e-09     1s
  27   1.20158928e+04  1.20158927e+04  8.44e-11 9.09e-13  1.18e-09     1s
  28   1.20158928e+04  1.20158928e+04  3.59e-10 9.09e-13  6.22e-11     1s

Barrier solved model in 28 iterations and 0.54 seconds (0.52 work units)
Optimal objective 1.20158928e+04

Crossover log...

    8113 DPushes remaining with DInf 0.0000000e+00                 1s
       0 DPushes remaining with DInf 0.0000000e+00                 1s

     650 PPushes remaining with PInf 0.0000000e+00                 1s
       0 PPushes remaining with PInf 0.0000000e+00                 1s

  Push phase complete: Pinf 0.0000000e+00, Dinf 2.6957213e-11      1s

Extra simplex iterations after uncrush: 9
Iteration    Objective       Primal Inf.    Dual Inf.      Time
    3076    1.2015893e+04   0.000000e+00   0.000000e+00      1s

Solved in 3076 iterations and 0.81 seconds (0.66 work units)
Optimal objective  1.201589282e+04

Gurobi 11.0.0 (linux64) logging started Mon Nov  4 16:00:59 2024

Set parameter LogFile to value "/lustre1/scratch/348/vsc34888/JointResearch/05.Models/06.Benchmarking/E.Representative_days_based_on_Line_Benefits_OptModel/IEEE118_mod1_ByStages_nc80/openStarNet_IEEE118_mod1_ByStages_nc80.log"
Set parameter Method to value 2
Set parameter MIPFocus to value 1
Set parameter Presolve to value 2
Set parameter RINS to value 100
Set parameter MIPGap to value 0.01
Set parameter Threads to value 36
Set parameter TimeLimit to value 259200
Set parameter IterationLimit to value 760000000
Gurobi Optimizer version 11.0.0 build v11.0.0rc2 (linux64 - "Rocky Linux 8.9 (Green Obsidian)")

CPU model: Intel(R) Xeon(R) Gold 6240 CPU @ 2.60GHz, instruction set [SSE2|AVX|AVX2|AVX512]
Thread count: 36 physical cores, 36 logical processors, using up to 36 threads

Optimize a model with 115104 rows, 85068 columns and 296433 nonzeros
Model fingerprint: 0x4d008f48
Variable types: 85034 continuous, 34 integer (34 binary)
Coefficient statistics:
  Matrix range     [3e-04, 9e+03]
  Objective range  [1e+00, 1e+00]
  Bounds range     [1e-04, 3e+00]
  RHS range        [2e-04, 3e+00]
Presolve removed 77813 rows and 39151 columns
Presolve time: 0.42s
Presolved: 37291 rows, 45917 columns, 136541 nonzeros
Variable types: 45883 continuous, 34 integer (34 binary)
Root relaxation presolved: 37291 rows, 45917 columns, 136541 nonzeros

Root barrier log...

Ordering time: 0.02s

Barrier statistics:
 Dense cols : 34
 AA' NZ     : 1.687e+05
 Factor NZ  : 6.575e+05 (roughly 40 MB of memory)
 Factor Ops : 1.381e+07 (less than 1 second per iteration)
 Threads    : 35

                  Objective                Residual
Iter       Primal          Dual         Primal    Dual     Compl     Time
   0   8.72565467e+06 -1.75880737e+09  1.55e+01 3.74e+03  7.04e+04     1s
   1   2.04639537e+06 -6.75504629e+08  3.38e+00 2.39e-08  1.45e+04     1s
   2   5.63511455e+05 -5.40677979e+08  7.35e-01 1.61e-08  6.55e+03     1s
   3   2.97732327e+05 -9.48670171e+07  2.00e-01 5.50e-09  1.06e+03     1s
   4   1.82097497e+05 -1.34451950e+07  1.36e-02 1.18e-09  1.27e+02     1s
   5   1.20106088e+05 -2.96810178e+06  2.13e-03 2.34e-10  2.82e+01     1s
   6   7.36910113e+04 -7.04645637e+05  8.19e-04 4.93e-11  7.08e+00     1s
   7   4.35152039e+04 -2.06074925e+05  3.43e-04 2.18e-11  2.27e+00     1s
   8   2.35533070e+04 -6.43338480e+04  1.43e-04 1.46e-11  7.98e-01     1s
   9   1.00912289e+04 -2.27804564e+04  5.09e-05 1.46e-11  2.98e-01     1s
  10   4.31908656e+03 -9.54042869e+03  1.61e-05 1.46e-11  1.26e-01     1s
  11   2.76261682e+03 -2.73959202e+03  8.34e-06 7.28e-12  5.00e-02     1s
  12   2.04968446e+03 -8.98796138e+02  5.12e-06 1.46e-11  2.68e-02     1s
  13   1.73712797e+03 -1.40691774e+02  3.79e-06 7.28e-12  1.70e-02     1s
  14   1.38969866e+03  1.81436812e+02  2.38e-06 7.28e-12  1.10e-02     1s
  15   1.14881447e+03  3.91506068e+02  1.43e-06 1.46e-11  6.88e-03     1s
  16   1.01477392e+03  5.26997887e+02  9.36e-07 7.28e-12  4.43e-03     1s
  17   8.87506894e+02  6.56554096e+02  4.59e-07 7.28e-12  2.10e-03     1s
  18   8.37631751e+02  6.96271356e+02  2.70e-07 7.46e-12  1.28e-03     1s
  19   8.15962335e+02  7.21707136e+02  1.90e-07 1.46e-11  8.56e-04     1s
  20   8.00854232e+02  7.34257170e+02  1.35e-07 1.46e-11  6.05e-04     1s
  21   7.87961352e+02  7.42816119e+02  8.86e-08 1.46e-11  4.10e-04     1s
  22   7.82213966e+02  7.49626265e+02  6.82e-08 7.28e-12  2.96e-04     1s
  23   7.71932612e+02  7.53624588e+02  3.23e-08 7.28e-12  1.66e-04     1s
  24   7.67839892e+02  7.59197812e+02  1.83e-08 1.46e-11  7.85e-05     1s
  25   7.64811710e+02  7.60357731e+02  8.09e-09 1.46e-11  4.04e-05     1s
  26   7.63813648e+02  7.61446755e+02  4.71e-09 1.46e-11  2.15e-05     1s
  27   7.63060107e+02  7.61850747e+02  2.31e-09 1.46e-11  1.10e-05     1s
  28   7.62696376e+02  7.62002426e+02  1.11e-09 7.28e-12  6.30e-06     1s
  29   7.62528648e+02  7.62164397e+02  5.94e-10 1.46e-11  3.31e-06     1s
  30   7.62400554e+02  7.62237581e+02  3.43e-09 1.46e-11  1.48e-06     1s
  31   7.62348099e+02  7.62300559e+02  6.35e-09 1.46e-11  4.32e-07     1s
  32   7.62344351e+02  7.62325142e+02  2.42e-09 1.46e-11  1.74e-07     1s
  33   7.62334417e+02  7.62328192e+02  3.51e-09 7.28e-12  5.65e-08     1s
  34   7.62332165e+02  7.62330643e+02  6.67e-09 3.64e-12  1.38e-08     1s
  35   7.62331253e+02  7.62331043e+02  1.77e-09 1.46e-11  1.91e-09     1s
  36   7.62331206e+02  7.62331179e+02  1.23e-09 7.28e-12  2.40e-10     1s
  37   7.62331186e+02  7.62331186e+02  1.09e-09 7.28e-12  1.72e-13     1s

Barrier solved model in 37 iterations and 1.47 seconds (1.42 work units)
Optimal objective 7.62331186e+02


Root relaxation: objective 7.623312e+02, 3282 iterations, 1.47 seconds (1.18 work units)

    Nodes    |    Current Node    |     Objective Bounds      |     Work
 Expl Unexpl |  Obj  Depth IntInf | Incumbent    BestBd   Gap | It/Node Time

     0     0  762.33119    0   21          -  762.33119      -     -    2s
H    0     0                    5913.3577806  762.33119  87.1%     -    4s
H    0     0                    2352.7803772  762.33119  67.6%     -    6s
     0     0  772.39774    0   23 2352.78038  772.39774  67.2%     -    8s
H    0     0                    1716.9558095  772.39774  55.0%     -    9s
     0     0  778.48221    0   22 1716.95581  778.48221  54.7%     -   10s
     0     0  778.48221    0   22 1716.95581  778.48221  54.7%     -   11s
     0     0  778.48221    0   23 1716.95581  778.48221  54.7%     -   11s
     0     0  779.05798    0   23 1716.95581  779.05798  54.6%     -   11s
     0     0  779.05798    0   22 1716.95581  779.05798  54.6%     -   12s
     0     0  779.05798    0   22 1716.95581  779.05798  54.6%     -   12s
     0     0  779.05798    0   22 1716.95581  779.05798  54.6%     -   12s
     0     0  779.05798    0   22 1716.95581  779.05798  54.6%     -   14s
     0     0  779.05798    0   22 1716.95581  779.05798  54.6%     -   15s
     0     0  779.05798    0   21 1716.95581  779.05798  54.6%     -   16s
     0     0  779.05798    0   21 1716.95581  779.05798  54.6%     -   16s
     0     0  779.05798    0   21 1716.95581  779.05798  54.6%     -   18s
H    0     0                     874.6926540  779.05798  10.9%     -  273s
     0     2  779.05798    0   21  874.69265  779.05798  10.9%     -  274s
     1     4  795.12192    1   21  874.69265  779.05798  10.9%  2821  276s
     3     8  806.13615    2   20  874.69265  791.41345  9.52%  1711  280s
     7    12     cutoff    3       874.69265  802.08547  8.30%  2130  289s
    15    24  830.69903    4   15  874.69265  811.03006  7.28%  2349  293s
    27    27  856.95188    5   12  874.69265  818.30863  6.45%  1888  306s
    51    28     cutoff    6       874.69265  826.69587  5.49%  2249  316s
    78    46  842.72116    7   13  874.69265  833.32758  4.73%  2471  323s
   106    58  866.96450    8   13  874.69265  836.36417  4.38%  2218  329s
   142    63     cutoff    9       874.69265  840.08695  3.96%  2013  333s
   178    64  855.35531   10    9  874.69265  840.81868  3.87%  1848  337s
   214    76  860.66253   11    8  874.69265  840.81868  3.87%  1711  342s
   260    70     cutoff   13       874.69265  840.81868  3.87%  1557  349s
   313    42  874.22237   11    7  874.69265  840.81868  3.87%  1496  356s
   366    20     cutoff   12       874.69265  844.27602  3.48%  1367  362s
   412    13  860.78247   12    8  874.69265  844.27602  3.48%  1295  367s
   440    10  873.65366   13    7  874.69265  844.27602  3.48%  1262  371s
   459     5     cutoff   13       874.69265  844.27602  3.48%  1234  375s
   475     1  874.61729   18    1  874.69265  844.27602  3.48%  1219  381s

Cutting planes:
  Gomory: 2
  Implied bound: 131
  MIR: 346
  RLT: 13

Explored 488 nodes (600239 simplex iterations) in 383.13 seconds (442.32 work units)
Thread count was 36 (of 36 available processors)

Solution count 4: 874.693 1716.96 2352.78 5913.36 

Optimal solution found (tolerance 1.00e-02)
Best objective 8.746926540150e+02, best bound 8.746926540150e+02, gap 0.0000%

Gurobi 11.0.0 (linux64) logging started Mon Nov  4 16:07:36 2024

Set parameter LogFile to value "/lustre1/scratch/348/vsc34888/JointResearch/05.Models/06.Benchmarking/E.Representative_days_based_on_Line_Benefits_OptModel/IEEE118_mod1_ByStages_nc80/openStarNet_IEEE118_mod1_ByStages_nc80.log"
Set parameter Method to value 2
Set parameter MIPFocus to value 1
Set parameter Presolve to value 2
Set parameter RINS to value 100
Set parameter MIPGap to value 0.01
Set parameter Threads to value 36
Set parameter TimeLimit to value 259200
Set parameter IterationLimit to value 760000000
Gurobi Optimizer version 11.0.0 build v11.0.0rc2 (linux64 - "Rocky Linux 8.9 (Green Obsidian)")

CPU model: Intel(R) Xeon(R) Gold 6240 CPU @ 2.60GHz, instruction set [SSE2|AVX|AVX2|AVX512]
Thread count: 36 physical cores, 36 logical processors, using up to 36 threads

Optimize a model with 115104 rows, 85034 columns and 285383 nonzeros
Model fingerprint: 0x971ce2e6
Coefficient statistics:
  Matrix range     [3e-04, 9e+03]
  Objective range  [1e+00, 1e+00]
  Bounds range     [1e-04, 3e+00]
  RHS range        [2e-04, 2e+02]
Presolve removed 85827 rows and 37418 columns
Presolve time: 0.16s
Presolved: 29277 rows, 47946 columns, 115456 nonzeros

Ordering time: 0.01s

Barrier statistics:
 AA' NZ     : 1.002e+05
 Factor NZ  : 3.984e+05 (roughly 34 MB of memory)
 Factor Ops : 6.000e+06 (less than 1 second per iteration)
 Threads    : 36

                  Objective                Residual
Iter       Primal          Dual         Primal    Dual     Compl     Time
   0   1.42631653e+07 -1.14411788e+09  8.00e+01 1.63e+02  4.27e+04     0s
   1   1.55881844e+06 -3.38757134e+08  7.77e+00 3.76e-12  5.59e+03     0s
   2   3.72455110e+05 -6.12505151e+07  1.25e+00 3.85e-12  8.25e+02     0s
   3   1.52122518e+05 -1.01993027e+07  4.37e-02 4.09e-12  1.03e+02     0s
   4   8.53358676e+04 -1.35114320e+06  2.33e-03 3.09e-11  1.38e+01     0s
   5   5.11646912e+04 -3.82812922e+05  8.37e-04 6.37e-12  4.15e+00     0s
   6   2.58095771e+04 -1.25111465e+05  3.00e-04 2.27e-12  1.44e+00     0s
   7   1.51932566e+04 -5.04025185e+04  1.49e-04 1.02e-12  6.26e-01     0s
   8   1.01759122e+04 -2.13874665e+04  9.35e-05 9.09e-13  3.01e-01     0s
   9   4.94902762e+03 -8.64095160e+03  3.73e-05 9.09e-13  1.30e-01     0s
  10   3.18894616e+03 -3.98998195e+03  2.00e-05 9.09e-13  6.85e-02     0s
  11   2.22511046e+03 -1.05333096e+03  1.13e-05 9.09e-13  3.13e-02     0s
  12   1.46718083e+03  2.29610979e+02  4.56e-06 9.09e-13  1.18e-02     0s
  13   1.13769529e+03  5.00785061e+02  1.88e-06 9.09e-13  6.08e-03     0s
  14   1.06925729e+03  6.96684540e+02  1.36e-06 9.09e-13  3.56e-03     0s
  15   1.01921476e+03  7.54319766e+02  9.91e-07 4.55e-13  2.53e-03     0s
  16   9.78128207e+02  8.06305891e+02  6.98e-07 4.55e-13  1.64e-03     0s
  17   9.42857031e+02  8.34681024e+02  4.53e-07 9.09e-13  1.03e-03     0s
  18   9.19193423e+02  8.50398836e+02  2.96e-07 9.09e-13  6.57e-04     0s
  19   9.09069867e+02  8.59277889e+02  2.27e-07 9.09e-13  4.75e-04     0s
  20   8.89954805e+02  8.67331898e+02  1.00e-07 6.82e-13  2.16e-04     0s
  21   8.80830995e+02  8.71698420e+02  3.92e-08 9.09e-13  8.72e-05     1s
  22   8.78068200e+02  8.73415309e+02  2.12e-08 4.55e-13  4.44e-05     1s
  23   8.76005400e+02  8.74125940e+02  8.07e-09 9.09e-13  1.79e-05     1s
  24   8.75329154e+02  8.74440353e+02  3.79e-09 9.09e-13  8.48e-06     1s
  25   8.74901237e+02  8.74609555e+02  1.22e-09 9.09e-13  2.78e-06     1s
  26   8.74732864e+02  8.74663547e+02  1.89e-09 4.55e-13  6.62e-07     1s
  27   8.74698825e+02  8.74690310e+02  2.40e-09 4.55e-13  8.13e-08     1s
  28   8.74694102e+02  8.74691931e+02  1.64e-09 9.09e-13  2.07e-08     1s
  29   8.74692665e+02  8.74692587e+02  3.32e-09 9.09e-13  7.40e-10     1s
  30   8.74692655e+02  8.74692652e+02  3.30e-09 9.09e-13  2.63e-11     1s

Barrier solved model in 30 iterations and 0.64 seconds (0.59 work units)
Optimal objective 8.74692655e+02

Crossover log...

    8361 DPushes remaining with DInf 0.0000000e+00                 1s
       0 DPushes remaining with DInf 0.0000000e+00                 1s

     451 PPushes remaining with PInf 0.0000000e+00                 1s
       0 PPushes remaining with PInf 0.0000000e+00                 1s

  Push phase complete: Pinf 0.0000000e+00, Dinf 2.2588014e-12      1s

Iteration    Objective       Primal Inf.    Dual Inf.      Time
    3138    8.7469265e+02   0.000000e+00   0.000000e+00      1s

Solved in 3138 iterations and 0.91 seconds (0.71 work units)
Optimal objective  8.746926540e+02
